p cnf 271 1064
35 -43 12 0
-46 34 25 0
-9 -7 -1 0
10 -21 7 0
5 -24 15 0
-45 23 3 0
45 -31 -17 0
21 -49 45 0
6 22 -42 0
-38 -9 15 0
-16 -23 27 0
46 -39 32 0
12 -49 39 0
-27 22 -13 0
-1 47 23 0
-30 -48 -50 0
37 -46 -13 0
-42 44 15 0
22 -17 50 0
-26 10 12 0
-26 -22 3 0
12 28 -4 0
13 -46 -38 0
-38 -23 50 0
-30 -1 16 0
-37 -16 29 0
-18 48 13 0
39 -19 2 0
20 -16 44 0
-22 -15 -39 0
50 2 -13 0
24 -14 -30 0
-41 3 -8 0
-42 38 -41 0
-6 40 -29 0
37 11 -32 0
-3 12 -36 0
46 31 -38 0
16 -39 34 0
-28 -41 -21 0
-35 12 49 0
-43 -26 -48 0
-18 -43 -36 0
1 28 -30 0
16 36 -28 0
3 12 23 0
16 -17 43 0
43 -22 38 0
45 6 -13 0
39 -19 20 0
9 -16 48 0
17 16 -7 0
1 -9 27 0
-7 -37 39 0
-25 -44 30 0
-11 -7 -12 0
19 -36 3 0
34 -30 -1 0
-30 23 -28 0
6 1 -49 0
-7 41 18 0
-9 31 -6 0
-9 40 -43 0
-18 -30 -8 0
-33 5 -39 0
-13 36 -38 0
-28 24 22 0
-18 -35 1 0
49 33 -11 0
29 19 8 0
-7 -29 33 0
-42 -4 30 0
-38 42 21 0
45 -34 -5 0
-44 47 26 0
40 28 35 0
-32 21 -43 0
9 -46 34 0
8 -34 -49 0
2 -26 -28 0
-26 45 38 0
-47 18 -6 0
-37 -1 13 0
16 47 36 0
47 2 -39 0
20 -47 39 0
-50 24 -40 0
20 -11 17 0
39 13 40 0
17 -42 -7 0
-44 -9 -43 0
-24 -25 16 0
-2 -48 7 0
47 27 41 0
2 -42 41 0
28 -17 46 0
-18 25 -35 0
16 -12 21 0
3 2 -32 0
15 34 32 0
-44 -31 2 0
28 14 15 0
48 -4 40 0
-13 5 -6 0
35 6 -38 0
-12 -11 9 0
-39 20 -8 0
-50 -15 -46 0
26 20 -2 0
30 -37 18 0
33 -14 -44 0
-38 8 -25 0
44 -2 -27 0
13 -45 50 0
-12 41 22 0
44 -30 9 0
-20 23 3 0
-40 28 25 0
-39 -32 8 0
50 43 -24 0
1 45 -38 0
3 -47 -9 0
14 31 25 0
-7 3 -45 0
40 7 -31 0
-39 -35 -5 0
-10 35 5 0
-6 33 -10 0
-28 6 -17 0
-7 19 34 0
36 -7 3 0
-9 -5 -43 0
-12 -6 36 0
-17 -29 43 0
45 -46 -7 0
1 34 10 0
3 -8 38 0
3 30 14 0
48 -7 32 0
-38 -6 -31 0
-31 -49 -39 0
31 50 9 0
31 45 42 0
34 44 13 0
-23 42 33 0
6 22 -46 0
-43 37 -23 0
12 16 13 0
-45 8 -17 0
3 49 45 0
1 2 51 0
-1 2 -51 0
1 -2 -51 0
-1 -2 51 0
6 9 52 0
-6 9 -52 0
6 -9 -52 0
-6 -9 52 0
-11 -14 53 0
11 -14 -53 0
-11 14 -53 0
11 14 53 0
15 -16 54 0
-15 -16 -54 0
15 16 -54 0
-15 16 54 0
-17 -18 55 0
17 -18 -55 0
-17 18 -55 0
17 18 55 0
-19 -20 56 0
19 -20 -56 0
-19 20 -56 0
19 20 56 0
-22 23 57 0
22 23 -57 0
-22 -23 -57 0
22 -23 57 0
24 27 58 0
-24 27 -58 0
24 -27 -58 0
-24 -27 58 0
-28 31 59 0
28 31 -59 0
-28 -31 -59 0
28 -31 59 0
-33 34 60 0
33 34 -60 0
-33 -34 -60 0
33 -34 60 0
-35 -36 61 0
35 -36 -61 0
-35 36 -61 0
35 36 61 0
-37 -38 62 0
37 -38 -62 0
-37 38 -62 0
37 38 62 0
39 43 63 0
-39 43 -63 0
39 -43 -63 0
-39 -43 63 0
-45 46 64 0
45 46 -64 0
-45 -46 -64 0
45 -46 64 0
-49 -50 65 0
49 -50 -65 0
-49 50 -65 0
49 50 65 0
51 -52 66 0
-51 -52 -66 0
51 52 -66 0
-51 52 66 0
53 -54 67 0
-53 -54 -67 0
53 54 -67 0
-53 54 67 0
55 -56 68 0
-55 -56 -68 0
55 56 -68 0
-55 56 68 0
57 -58 69 0
-57 -58 -69 0
57 58 -69 0
-57 58 69 0
59 -60 70 0
-59 -60 -70 0
59 60 -70 0
-59 60 70 0
61 -62 71 0
-61 -62 -71 0
61 62 -71 0
-61 62 71 0
63 -64 72 0
-63 -64 -72 0
63 64 -72 0
-63 64 72 0
65 -66 73 0
-65 -66 -73 0
65 66 -73 0
-65 66 73 0
67 -68 74 0
-67 -68 -74 0
67 68 -74 0
-67 68 74 0
69 -70 75 0
-69 -70 -75 0
69 70 -75 0
-69 70 75 0
71 -72 76 0
-71 -72 -76 0
71 72 -76 0
-71 72 76 0
73 -74 77 0
-73 -74 -77 0
73 74 -77 0
-73 74 77 0
75 -76 78 0
-75 -76 -78 0
75 76 -78 0
-75 76 78 0
77 78 0
-77 -78 0
2 5 79 0
-2 5 -79 0
2 -5 -79 0
-2 -5 79 0
-6 9 80 0
6 9 -80 0
-6 -9 -80 0
6 -9 80 0
-11 15 81 0
11 15 -81 0
-11 -15 -81 0
11 -15 81 0
17 20 82 0
-17 20 -82 0
17 -20 -82 0
-17 -20 82 0
21 -30 83 0
-21 -30 -83 0
21 30 -83 0
-21 30 83 0
31 32 84 0
-31 32 -84 0
31 -32 -84 0
-31 -32 84 0
33 -38 85 0
-33 -38 -85 0
33 38 -85 0
-33 38 85 0
-40 43 86 0
40 43 -86 0
-40 -43 -86 0
40 -43 86 0
-44 47 87 0
44 47 -87 0
-44 -47 -87 0
44 -47 87 0
78 -79 88 0
-78 -79 -88 0
78 79 -88 0
-78 79 88 0
80 -81 89 0
-80 -81 -89 0
80 81 -89 0
-80 81 89 0
82 -83 90 0
-82 -83 -90 0
82 83 -90 0
-82 83 90 0
84 -85 91 0
-84 -85 -91 0
84 85 -91 0
-84 85 91 0
86 -87 92 0
-86 -87 -92 0
86 87 -92 0
-86 87 92 0
88 -89 93 0
-88 -89 -93 0
88 89 -93 0
-88 89 93 0
90 -91 94 0
-90 -91 -94 0
90 91 -94 0
-90 91 94 0
-92 -93 94 0
92 -93 -94 0
-92 93 -94 0
92 93 94 0
1 7 95 0
-1 7 -95 0
1 -7 -95 0
-1 -7 95 0
-8 9 96 0
8 9 -96 0
-8 -9 -96 0
8 -9 96 0
21 22 97 0
-21 22 -97 0
21 -22 -97 0
-21 -22 97 0
23 -25 98 0
-23 -25 -98 0
23 25 -98 0
-23 25 98 0
26 -28 99 0
-26 -28 -99 0
26 28 -99 0
-26 28 99 0
29 -30 100 0
-29 -30 -100 0
29 30 -100 0
-29 30 100 0
31 32 101 0
-31 32 -101 0
31 -32 -101 0
-31 -32 101 0
33 -35 102 0
-33 -35 -102 0
33 35 -102 0
-33 35 102 0
39 42 103 0
-39 42 -103 0
39 -42 -103 0
-39 -42 103 0
-43 -45 104 0
43 -45 -104 0
-43 45 -104 0
43 45 104 0
46 47 105 0
-46 47 -105 0
46 -47 -105 0
-46 -47 105 0
94 -95 106 0
-94 -95 -106 0
94 95 -106 0
-94 95 106 0
96 -97 107 0
-96 -97 -107 0
96 97 -107 0
-96 97 107 0
98 -99 108 0
-98 -99 -108 0
98 99 -108 0
-98 99 108 0
100 -101 109 0
-100 -101 -109 0
100 101 -109 0
-100 101 109 0
102 -103 110 0
-102 -103 -110 0
102 103 -110 0
-102 103 110 0
104 -105 111 0
-104 -105 -111 0
104 105 -111 0
-104 105 111 0
106 -107 112 0
-106 -107 -112 0
106 107 -112 0
-106 107 112 0
108 -109 113 0
-108 -109 -113 0
108 109 -113 0
-108 109 113 0
110 -111 114 0
-110 -111 -114 0
110 111 -114 0
-110 111 114 0
-112 -113 114 0
112 -113 -114 0
-112 113 -114 0
112 113 114 0
6 -10 115 0
-6 -10 -115 0
6 10 -115 0
-6 10 115 0
-11 12 116 0
11 12 -116 0
-11 -12 -116 0
11 -12 116 0
13 -14 117 0
-13 -14 -117 0
13 14 -117 0
-13 14 117 0
-15 -16 118 0
15 -16 -118 0
-15 16 -118 0
15 16 118 0
17 -19 119 0
-17 -19 -119 0
17 19 -119 0
-17 19 119 0
20 -22 120 0
-20 -22 -120 0
20 22 -120 0
-20 22 120 0
-25 26 121 0
25 26 -121 0
-25 -26 -121 0
25 -26 121 0
-30 -33 122 0
30 -33 -122 0
-30 33 -122 0
30 33 122 0
34 35 123 0
-34 35 -123 0
34 -35 -123 0
-34 -35 123 0
-36 -37 124 0
36 -37 -124 0
-36 37 -124 0
36 37 124 0
39 -44 125 0
-39 -44 -125 0
39 44 -125 0
-39 44 125 0
114 -115 126 0
-114 -115 -126 0
114 115 -126 0
-114 115 126 0
116 -117 127 0
-116 -117 -127 0
116 117 -127 0
-116 117 127 0
118 -119 128 0
-118 -119 -128 0
118 119 -128 0
-118 119 128 0
120 -121 129 0
-120 -121 -129 0
120 121 -129 0
-120 121 129 0
122 -123 130 0
-122 -123 -130 0
122 123 -130 0
-122 123 130 0
124 -125 131 0
-124 -125 -131 0
124 125 -131 0
-124 125 131 0
126 -127 132 0
-126 -127 -132 0
126 127 -132 0
-126 127 132 0
128 -129 133 0
-128 -129 -133 0
128 129 -133 0
-128 129 133 0
130 -131 134 0
-130 -131 -134 0
130 131 -134 0
-130 131 134 0
-132 -133 134 0
132 -133 -134 0
-132 133 -134 0
132 133 134 0
1 5 135 0
-1 5 -135 0
1 -5 -135 0
-1 -5 135 0
8 9 136 0
-8 9 -136 0
8 -9 -136 0
-8 -9 136 0
-12 15 137 0
12 15 -137 0
-12 -15 -137 0
12 -15 137 0
-16 -18 138 0
16 -18 -138 0
-16 18 -138 0
16 18 138 0
-19 -20 139 0
19 -20 -139 0
-19 20 -139 0
19 20 139 0
-21 24 140 0
21 24 -140 0
-21 -24 -140 0
21 -24 140 0
26 -27 141 0
-26 -27 -141 0
26 27 -141 0
-26 27 141 0
-29 -30 142 0
29 -30 -142 0
-29 30 -142 0
29 30 142 0
-31 -32 143 0
31 -32 -143 0
-31 32 -143 0
31 32 143 0
33 -34 144 0
-33 -34 -144 0
33 34 -144 0
-33 34 144 0
-35 36 145 0
35 36 -145 0
-35 -36 -145 0
35 -36 145 0
39 44 146 0
-39 44 -146 0
39 -44 -146 0
-39 -44 146 0
45 46 147 0
-45 46 -147 0
45 -46 -147 0
-45 -46 147 0
134 -135 148 0
-134 -135 -148 0
134 135 -148 0
-134 135 148 0
136 -137 149 0
-136 -137 -149 0
136 137 -149 0
-136 137 149 0
138 -139 150 0
-138 -139 -150 0
138 139 -150 0
-138 139 150 0
140 -141 151 0
-140 -141 -151 0
140 141 -151 0
-140 141 151 0
142 -143 152 0
-142 -143 -152 0
142 143 -152 0
-142 143 152 0
144 -145 153 0
-144 -145 -153 0
144 145 -153 0
-144 145 153 0
146 -147 154 0
-146 -147 -154 0
146 147 -154 0
-146 147 154 0
148 -149 155 0
-148 -149 -155 0
148 149 -155 0
-148 149 155 0
150 -151 156 0
-150 -151 -156 0
150 151 -156 0
-150 151 156 0
152 -153 157 0
-152 -153 -157 0
152 153 -157 0
-152 153 157 0
154 -155 158 0
-154 -155 -158 0
154 155 -158 0
-154 155 158 0
156 -157 159 0
-156 -157 -159 0
156 157 -159 0
-156 157 159 0
158 159 0
-158 -159 0
1 -2 160 0
-1 -2 -160 0
1 2 -160 0
-1 2 160 0
-3 -4 161 0
3 -4 -161 0
-3 4 -161 0
3 4 161 0
-5 -11 162 0
5 -11 -162 0
-5 11 -162 0
5 11 162 0
-13 -14 163 0
13 -14 -163 0
-13 14 -163 0
13 14 163 0
15 16 164 0
-15 16 -164 0
15 -16 -164 0
-15 -16 164 0
-17 20 165 0
17 20 -165 0
-17 -20 -165 0
17 -20 165 0
-27 -28 166 0
27 -28 -166 0
-27 28 -166 0
27 28 166 0
-29 -31 167 0
29 -31 -167 0
-29 31 -167 0
29 31 167 0
34 35 168 0
-34 35 -168 0
34 -35 -168 0
-34 -35 168 0
-40 45 169 0
40 45 -169 0
-40 -45 -169 0
40 -45 169 0
159 -160 170 0
-159 -160 -170 0
159 160 -170 0
-159 160 170 0
161 -162 171 0
-161 -162 -171 0
161 162 -171 0
-161 162 171 0
163 -164 172 0
-163 -164 -172 0
163 164 -172 0
-163 164 172 0
165 -166 173 0
-165 -166 -173 0
165 166 -173 0
-165 166 173 0
167 -168 174 0
-167 -168 -174 0
167 168 -174 0
-167 168 174 0
169 -170 175 0
-169 -170 -175 0
169 170 -175 0
-169 170 175 0
171 -172 176 0
-171 -172 -176 0
171 172 -176 0
-171 172 176 0
173 -174 177 0
-173 -174 -177 0
173 174 -177 0
-173 174 177 0
-175 -176 177 0
175 -176 -177 0
-175 176 -177 0
175 176 177 0
2 3 178 0
-2 3 -178 0
2 -3 -178 0
-2 -3 178 0
4 6 179 0
-4 6 -179 0
4 -6 -179 0
-4 -6 179 0
9 12 180 0
-9 12 -180 0
9 -12 -180 0
-9 -12 180 0
16 -19 181 0
-16 -19 -181 0
16 19 -181 0
-16 19 181 0
-23 24 182 0
23 24 -182 0
-23 -24 -182 0
23 -24 182 0
29 -30 183 0
-29 -30 -183 0
29 30 -183 0
-29 30 183 0
35 -37 184 0
-35 -37 -184 0
35 37 -184 0
-35 37 184 0
38 39 185 0
-38 39 -185 0
38 -39 -185 0
-38 -39 185 0
41 -42 186 0
-41 -42 -186 0
41 42 -186 0
-41 42 186 0
-46 -47 187 0
46 -47 -187 0
-46 47 -187 0
46 47 187 0
-48 50 188 0
48 50 -188 0
-48 -50 -188 0
48 -50 188 0
178 -179 189 0
-178 -179 -189 0
178 179 -189 0
-178 179 189 0
180 -181 190 0
-180 -181 -190 0
180 181 -190 0
-180 181 190 0
182 -183 191 0
-182 -183 -191 0
182 183 -191 0
-182 183 191 0
184 -185 192 0
-184 -185 -192 0
184 185 -192 0
-184 185 192 0
186 -187 193 0
-186 -187 -193 0
186 187 -193 0
-186 187 193 0
188 -189 194 0
-188 -189 -194 0
188 189 -194 0
-188 189 194 0
190 -191 195 0
-190 -191 -195 0
190 191 -195 0
-190 191 195 0
192 -193 196 0
-192 -193 -196 0
192 193 -196 0
-192 193 196 0
-194 -195 196 0
194 -195 -196 0
-194 195 -196 0
194 195 196 0
1 2 197 0
-1 2 -197 0
1 -2 -197 0
-1 -2 197 0
4 5 198 0
-4 5 -198 0
4 -5 -198 0
-4 -5 198 0
6 10 199 0
-6 10 -199 0
6 -10 -199 0
-6 -10 199 0
13 -14 200 0
-13 -14 -200 0
13 14 -200 0
-13 14 200 0
16 -17 201 0
-16 -17 -201 0
16 17 -201 0
-16 17 201 0
-18 -21 202 0
18 -21 -202 0
-18 21 -202 0
18 21 202 0
-22 26 203 0
22 26 -203 0
-22 -26 -203 0
22 -26 203 0
-29 -31 204 0
29 -31 -204 0
-29 31 -204 0
29 31 204 0
32 33 205 0
-32 33 -205 0
32 -33 -205 0
-32 -33 205 0
34 35 206 0
-34 35 -206 0
34 -35 -206 0
-34 -35 206 0
-37 39 207 0
37 39 -207 0
-37 -39 -207 0
37 -39 207 0
-40 -42 208 0
40 -42 -208 0
-40 42 -208 0
40 42 208 0
44 45 209 0
-44 45 -209 0
44 -45 -209 0
-44 -45 209 0
196 -197 210 0
-196 -197 -210 0
196 197 -210 0
-196 197 210 0
198 -199 211 0
-198 -199 -211 0
198 199 -211 0
-198 199 211 0
200 -201 212 0
-200 -201 -212 0
200 201 -212 0
-200 201 212 0
202 -203 213 0
-202 -203 -213 0
202 203 -213 0
-202 203 213 0
204 -205 214 0
-204 -205 -214 0
204 205 -214 0
-204 205 214 0
206 -207 215 0
-206 -207 -215 0
206 207 -215 0
-206 207 215 0
208 -209 216 0
-208 -209 -216 0
208 209 -216 0
-208 209 216 0
210 -211 217 0
-210 -211 -217 0
210 211 -217 0
-210 211 217 0
212 -213 218 0
-212 -213 -218 0
212 213 -218 0
-212 213 218 0
214 -215 219 0
-214 -215 -219 0
214 215 -219 0
-214 215 219 0
216 -217 220 0
-216 -217 -220 0
216 217 -220 0
-216 217 220 0
218 -219 221 0
-218 -219 -221 0
218 219 -221 0
-218 219 221 0
220 221 0
-220 -221 0
-1 -2 222 0
1 -2 -222 0
-1 2 -222 0
1 2 222 0
-6 8 223 0
6 8 -223 0
-6 -8 -223 0
6 -8 223 0
-10 -12 224 0
10 -12 -224 0
-10 12 -224 0
10 12 224 0
14 -17 225 0
-14 -17 -225 0
14 17 -225 0
-14 17 225 0
19 21 226 0
-19 21 -226 0
19 -21 -226 0
-19 -21 226 0
-22 23 227 0
22 23 -227 0
-22 -23 -227 0
22 -23 227 0
-25 27 228 0
25 27 -228 0
-25 -27 -228 0
25 -27 228 0
29 32 229 0
-29 32 -229 0
29 -32 -229 0
-29 -32 229 0
33 -34 230 0
-33 -34 -230 0
33 34 -230 0
-33 34 230 0
-35 -41 231 0
35 -41 -231 0
-35 41 -231 0
35 41 231 0
42 43 232 0
-42 43 -232 0
42 -43 -232 0
-42 -43 232 0
45 46 233 0
-45 46 -233 0
45 -46 -233 0
-45 -46 233 0
47 -50 234 0
-47 -50 -234 0
47 50 -234 0
-47 50 234 0
222 -223 235 0
-222 -223 -235 0
222 223 -235 0
-222 223 235 0
224 -225 236 0
-224 -225 -236 0
224 225 -236 0
-224 225 236 0
226 -227 237 0
-226 -227 -237 0
226 227 -237 0
-226 227 237 0
228 -229 238 0
-228 -229 -238 0
228 229 -238 0
-228 229 238 0
230 -231 239 0
-230 -231 -239 0
230 231 -239 0
-230 231 239 0
232 -233 240 0
-232 -233 -240 0
232 233 -240 0
-232 233 240 0
234 -235 241 0
-234 -235 -241 0
234 235 -241 0
-234 235 241 0
236 -237 242 0
-236 -237 -242 0
236 237 -242 0
-236 237 242 0
238 -239 243 0
-238 -239 -243 0
238 239 -243 0
-238 239 243 0
240 -241 244 0
-240 -241 -244 0
240 241 -244 0
-240 241 244 0
242 -243 245 0
-242 -243 -245 0
242 243 -245 0
-242 243 245 0
244 245 0
-244 -245 0
-2 -3 246 0
2 -3 -246 0
-2 3 -246 0
2 3 246 0
-6 -7 247 0
6 -7 -247 0
-6 7 -247 0
6 7 247 0
-9 10 248 0
9 10 -248 0
-9 -10 -248 0
9 -10 248 0
-12 14 249 0
12 14 -249 0
-12 -14 -249 0
12 -14 249 0
15 -16 250 0
-15 -16 -250 0
15 16 -250 0
-15 16 250 0
19 -20 251 0
-19 -20 -251 0
19 20 -251 0
-19 20 251 0
22 24 252 0
-22 24 -252 0
22 -24 -252 0
-22 -24 252 0
-28 -29 253 0
28 -29 -253 0
-28 29 -253 0
28 29 253 0
-30 -31 254 0
30 -31 -254 0
-30 31 -254 0
30 31 254 0
-32 33 255 0
32 33 -255 0
-32 -33 -255 0
32 -33 255 0
-34 -40 256 0
34 -40 -256 0
-34 40 -256 0
34 40 256 0
42 44 257 0
-42 44 -257 0
42 -44 -257 0
-42 -44 257 0
46 47 258 0
-46 47 -258 0
46 -47 -258 0
-46 -47 258 0
-49 50 259 0
49 50 -259 0
-49 -50 -259 0
49 -50 259 0
246 -247 260 0
-246 -247 -260 0
246 247 -260 0
-246 247 260 0
248 -249 261 0
-248 -249 -261 0
248 249 -261 0
-248 249 261 0
250 -251 262 0
-250 -251 -262 0
250 251 -262 0
-250 251 262 0
252 -253 263 0
-252 -253 -263 0
252 253 -263 0
-252 253 263 0
254 -255 264 0
-254 -255 -264 0
254 255 -264 0
-254 255 264 0
256 -257 265 0
-256 -257 -265 0
256 257 -265 0
-256 257 265 0
258 -259 266 0
-258 -259 -266 0
258 259 -266 0
-258 259 266 0
260 -261 267 0
-260 -261 -267 0
260 261 -267 0
-260 261 267 0
262 -263 268 0
-262 -263 -268 0
262 263 -268 0
-262 263 268 0
264 -265 269 0
-264 -265 -269 0
264 265 -269 0
-264 265 269 0
266 -267 270 0
-266 -267 -270 0
266 267 -270 0
-266 267 270 0
268 -269 271 0
-268 -269 -271 0
268 269 -271 0
-268 269 271 0
270 271 0
-270 -271 0
